DIMACS2
40 252 58 303 417 157 496 555 32 343 372 500 611 443 234 106 352 515 606 571 175 42 322 338 167 596 74 472 602 523 330 112 604 630 635 364 511 619 80 487 4
p edge 640 2769
e 0 263 2.0
e 0 209 1.0
e 0 186 1.0
e 0 262 2.0
e 1 440 1.0
e 1 622 1.0
e 1 468 1.0
e 1 370 2.0
e 2 600 1.0
e 2 343 7.0
e 2 555 10.0
e 2 618 1.0
e 3 535 1.0
e 3 85 1.0
e 3 316 1.0
e 3 2 1.0
e 4 515 4.0
e 4 329 24.0
e 4 30 27.0
e 4 373 45.0
e 4 364 15.0
e 4 32 3.0
e 4 252 35.0
e 4 42 16.0
e 4 596 47.0
e 5 182 2.0
e 5 308 2.0
e 5 513 1.0
e 5 82 1.0
e 6 143 1.0
e 6 573 1.0
e 6 304 1.0
e 6 120 1.0
e 7 214 1.0
e 7 436 1.0
e 7 181 1.0
e 7 330 16.0
e 8 183 1.0
e 8 341 1.0
e 8 296 1.0
e 8 595 2.0
e 9 389 1.0
e 9 436 1.0
e 9 181 1.0
e 9 592 1.0
e 10 325 1.0
e 10 190 1.0
e 10 551 1.0
e 10 60 1.0
e 11 365 1.0
e 11 310 1.0
e 11 105 1.0
e 11 203 1.0
e 12 524 1.0
e 12 20 1.0
e 12 602 48.0
e 12 538 2.0
e 13 506 1.0
e 13 220 2.0
e 13 287 2.0
e 13 372 39.0
e 14 95 1.0
e 14 388 2.0
e 14 237 1.0
e 14 490 1.0
e 15 296 1.0
e 15 214 1.0
e 15 38 1.0
e 15 54 1.0
e 16 341 1.0
e 16 522 1.0
e 16 17 1.0
e 16 251 1.0
e 17 621 1.0
e 17 244 1.0
e 17 531 1.0
e 17 351 1.0
e 18 130 1.0
e 18 211 1.0
e 18 95 1.0
e 18 99 1.0
e 19 561 1.0
e 19 330 49.0
e 19 622 1.0
e 19 343 33.0
e 20 572 1.0
e 20 387 1.0
e 20 124 1.0
e 20 594 1.0
e 21 256 1.0
e 21 175 6.0
e 21 329 2.0
e 21 128 1.0
e 22 36 2.0
e 22 211 1.0
e 22 246 1.0
e 22 286 1.0
e 23 187 1.0
e 23 335 1.0
e 23 596 31.0
e 23 322 37.0
e 24 421 1.0
e 24 591 2.0
e 24 291 1.0
e 24 191 1.0
e 25 169 2.0
e 25 596 21.0
e 25 23 1.0
e 25 414 2.0
e 26 41 1.0
e 26 263 1.0
e 26 254 2.0
e 26 409 1.0
e 27 110 1.0
e 27 320 1.0
e 27 224 1.0
e 27 239 1.0
e 28 53 1.0
e 28 364 24.0
e 28 62 1.0
e 28 19 1.0
e 29 243 1.0
e 29 327 1.0
e 29 303 42.0
e 29 626 1.0
e 30 67 1.0
e 30 57 1.0
e 30 439 2.0
e 30 393 1.0
e 31 139 1.0
e 31 319 1.0
e 31 294 1.0
e 31 351 1.0
e 32 493 26.0
e 32 158 4.0
e 32 407 16.0
e 32 19 33.0
e 32 606 46.0
e 32 303 43.0
e 32 555 15.0
e 32 472 37.0
e 32 443 42.0
e 33 629 1.0
e 33 311 1.0
e 33 120 1.0
e 33 472 36.0
e 34 15 2.0
e 34 619 11.0
e 34 627 1.0
e 34 539 2.0
e 35 287 1.0
e 35 538 2.0
e 35 138 1.0
e 35 484 1.0
e 36 238 1.0
e 36 423 1.0
e 36 117 1.0
e 36 323 1.0
e 37 580 1.0
e 37 489 2.0
e 37 141 1.0
e 37 205 1.0
e 38 90 1.0
e 38 121 1.0
e 38 324 1.0
e 38 198 1.0
e 39 409 1.0
e 39 7 1.0
e 39 204 1.0
e 39 381 1.0
e 40 139 1.0
e 40 258 1.0
e 40 172 1.0
e 40 67 1.0
e 41 139 1.0
e 41 23 2.0
e 41 540 1.0
e 41 621 1.0
e 42 63 8.0
e 42 333 3.0
e 42 414 31.0
e 42 488 32.0
e 42 602 4.0
e 42 330 25.0
e 42 555 24.0
e 42 167 6.0
e 42 106 41.0
e 42 234 13.0
e 42 303 22.0
e 43 532 1.0
e 43 367 1.0
e 43 130 1.0
e 43 92 1.0
e 44 422 3.0
e 44 364 27.0
e 44 326 1.0
e 44 179 1.0
e 45 578 1.0
e 45 251 1.0
e 45 240 1.0
e 45 388 1.0
e 46 496 18.0
e 46 173 2.0
e 46 342 1.0
e 46 35 1.0
e 47 3 1.0
e 47 465 2.0
e 47 17 1.0
e 47 272 1.0
e 48 250 1.0
e 48 611 26.0
e 48 351 1.0
e 48 286 1.0
e 49 335 1.0
e 49 102 1.0
e 49 205 1.0
e 49 290 1.0
e 50 450 1.0
e 50 553 1.0
e 50 633 1.0
e 50 504 1.0
e 51 202 1.0
e 51 470 1.0
e 51 252 20.0
e 51 294 1.0
e 52 110 2.0
e 52 96 1.0
e 52 340 2.0
e 52 503 1.0
e 53 188 2.0
e 53 236 1.0
e 53 552 2.0
e 53 108 1.0
e 54 269 2.0
e 54 360 1.0
e 54 247 2.0
e 54 222 2.0
e 55 483 1.0
e 55 581 2.0
e 55 368 1.0
e 55 231 2.0
e 56 355 2.0
e 56 323 1.0
e 56 366 1.0
e 56 620 1.0
e 57 497 2.0
e 57 447 1.0
e 57 453 1.0
e 57 65 2.0
e 58 31 11.0
e 58 285 4.0
e 58 171 5.0
e 58 409 36.0
e 58 106 28.0
e 58 42 24.0
e 58 596 16.0
e 58 322 16.0
e 58 472 12.0
e 58 303 30.0
e 58 330 16.0
e 58 515 16.0
e 58 234 42.0
e 59 279 1.0
e 59 379 1.0
e 59 495 1.0
e 59 424 1.0
e 60 398 1.0
e 60 124 1.0
e 60 170 3.0
e 60 155 1.0
e 61 66 1.0
e 61 110 1.0
e 61 387 1.0
e 61 164 1.0
e 62 531 1.0
e 62 2 2.0
e 62 93 1.0
e 62 417 2.0
e 63 611 39.0
e 63 337 1.0
e 63 119 1.0
e 63 632 1.0
e 64 113 1.0
e 64 578 1.0
e 64 282 1.0
e 64 194 1.0
e 65 242 1.0
e 65 554 2.0
e 65 489 2.0
e 65 304 2.0
e 66 200 1.0
e 66 386 1.0
e 66 239 1.0
e 66 359 2.0
e 67 94 1.0
e 67 117 1.0
e 67 225 1.0
e 67 446 1.0
e 68 634 1.0
e 68 9 1.0
e 68 130 1.0
e 68 349 3.0
e 69 481 1.0
e 69 16 1.0
e 69 344 1.0
e 69 573 1.0
e 70 534 1.0
e 70 269 1.0
e 70 3 1.0
e 70 165 1.0
e 71 427 1.0
e 71 8 2.0
e 71 62 1.0
e 71 452 1.0
e 72 134 1.0
e 72 629 1.0
e 72 250 1.0
e 72 183 2.0
e 73 293 1.0
e 73 615 2.0
e 73 221 1.0
e 73 313 1.0
e 74 632 37.0
e 74 254 44.0
e 74 404 35.0
e 74 76 2.0
e 74 252 27.0
e 74 500 3.0
e 74 32 28.0
e 74 611 28.0
e 74 596 26.0
e 74 157 41.0
e 74 167 37.0
e 74 417 4.0
e 75 222 1.0
e 75 367 1.0
e 75 552 2.0
e 75 162 2.0
e 76 14 1.0
e 76 84 1.0
e 76 460 1.0
e 76 343 19.0
e 77 83 1.0
e 77 67 2.0
e 77 564 1.0
e 77 161 1.0
e 78 148 1.0
e 78 30 2.0
e 78 110 1.0
e 78 329 2.0
e 79 587 1.0
e 79 35 1.0
e 79 548 1.0
e 79 337 1.0
e 80 57 7.0
e 80 544 28.0
e 80 188 10.0
e 80 557 46.0
e 80 303 26.0
e 80 234 26.0
e 80 322 5.0
e 80 330 35.0
e 80 252 22.0
e 80 32 15.0
e 80 338 7.0
e 80 343 29.0
e 80 42 10.0
e 80 511 21.0
e 80 619 11.0
e 80 443 30.0
e 81 132 1.0
e 81 529 1.0
e 81 468 2.0
e 81 374 1.0
e 82 49 1.0
e 82 249 2.0
e 82 533 2.0
e 82 364 40.0
e 83 472 39.0
e 83 582 1.0
e 83 630 37.0
e 83 631 1.0
e 84 190 1.0
e 84 28 1.0
e 84 135 1.0
e 84 299 1.0
e 85 589 2.0
e 85 542 2.0
e 85 435 1.0
e 85 433 1.0
e 86 338 2.0
e 86 465 1.0
e 86 418 3.0
e 86 146 2.0
e 87 127 1.0
e 87 516 1.0
e 87 279 1.0
e 87 349 1.0
e 88 128 1.0
e 88 369 3.0
e 88 316 1.0
e 88 446 1.0
e 89 284 1.0
e 89 461 1.0
e 89 285 2.0
e 89 481 2.0
e 90 146 1.0
e 90 101 2.0
e 90 483 1.0
e 90 525 1.0
e 91 233 3.0
e 91 551 1.0
e 91 172 2.0
e 91 628 2.0
e 92 288 2.0
e 92 144 1.0
e 92 170 2.0
e 92 329 1.0
e 93 360 1.0
e 93 9 3.0
e 93 303 38.0
e 93 311 2.0
e 94 200 1.0
e 94 64 2.0
e 94 27 1.0
e 94 93 1.0
e 95 512 1.0
e 95 532 1.0
e 95 615 1.0
e 95 193 1.0
e 96 537 1.0
e 96 98 2.0
e 96 76 1.0
e 96 572 1.0
e 97 65 2.0
e 97 135 1.0
e 97 533 1.0
e 97 372 18.0
e 98 625 1.0
e 98 218 2.0
e 98 368 2.0
e 98 347 1.0
e 99 5 2.0
e 99 616 2.0
e 99 90 2.0
e 99 514 1.0
e 100 417 18.0
e 100 496 27.0
e 100 4 40.0
e 100 553 2.0
e 101 72 2.0
e 101 596 29.0
e 101 219 1.0
e 101 195 2.0
e 102 571 24.0
e 102 128 1.0
e 102 112 4.0
e 102 504 2.0
e 103 544 1.0
e 103 246 1.0
e 103 120 1.0
e 103 535 1.0
e 104 429 1.0
e 104 32 34.0
e 104 459 1.0
e 104 489 1.0
e 105 522 1.0
e 105 514 1.0
e 105 629 1.0
e 105 59 1.0
e 106 175 7.0
e 106 534 11.0
e 106 192 4.0
e 106 601 4.0
e 106 157 47.0
e 106 330 27.0
e 106 569 28.0
e 106 303 42.0
e 106 167 23.0
e 106 338 6.0
e 106 74 12.0
e 106 234 35.0
e 106 112 11.0
e 106 635 15.0
e 107 67 1.0
e 107 607 1.0
e 107 398 1.0
e 107 285 2.0
e 108 484 1.0
e 108 628 1.0
e 108 335 1.0
e 108 524 1.0
e 109 459 1.0
e 109 468 1.0
e 109 57 1.0
e 109 517 1.0
e 110 510 2.0
e 110 591 2.0
e 110 610 1.0
e 110 601 1.0
e 111 246 1.0
e 111 449 1.0
e 111 271 1.0
e 111 22 1.0
e 112 577 15.0
e 112 542 27.0
e 112 46 4.0
e 112 271 40.0
e 112 472 12.0
e 112 487 48.0
e 112 596 34.0
e 112 443 24.0
e 112 157 32.0
e 112 303 45.0
e 112 234 34.0
e 112 602 8.0
e 112 322 10.0
e 113 284 1.0
e 113 55 1.0
e 113 249 1.0
e 113 413 1.0
e 114 170 2.0
e 114 230 1.0
e 114 421 1.0
e 114 220 2.0
e 115 197 1.0
e 115 379 1.0
e 115 216 1.0
e 115 387 1.0
e 116 385 2.0
e 116 191 1.0
e 116 274 1.0
e 116 582 1.0
e 117 100 1.0
e 117 303 25.0
e 117 87 1.0
e 117 521 1.0
e 118 178 1.0
e 118 543 1.0
e 118 160 1.0
e 118 279 1.0
e 119 185 1.0
e 119 138 2.0
e 119 345 1.0
e 119 637 1.0
e 120 37 1.0
e 120 414 1.0
e 120 64 1.0
e 120 194 1.0
e 121 476 1.0
e 121 217 1.0
e 121 162 1.0
e 121 142 2.0
e 122 231 1.0
e 122 321 2.0
e 122 174 1.0
e 122 101 1.0
e 123 27 1.0
e 123 568 1.0
e 123 280 1.0
e 123 560 1.0
e 124 160 1.0
e 124 122 1.0
e 124 443 34.0
e 124 511 6.0
e 125 41 1.0
e 125 326 1.0
e 125 445 1.0
e 125 339 1.0
e 126 604 4.0
e 126 377 1.0
e 126 74 31.0
e 126 147 1.0
e 127 395 1.0
e 127 138 1.0
e 127 263 2.0
e 127 200 1.0
e 128 522 1.0
e 128 631 1.0
e 128 245 3.0
e 128 27 1.0
e 129 4 18.0
e 129 137 1.0
e 129 18 1.0
e 129 602 26.0
e 130 117 2.0
e 130 15 1.0
e 130 184 1.0
e 130 219 1.0
e 131 406 1.0
e 131 420 1.0
e 131 632 2.0
e 131 468 1.0
e 132 137 1.0
e 132 522 1.0
e 132 507 2.0
e 132 513 3.0
e 133 148 1.0
e 133 249 2.0
e 133 395 1.0
e 133 445 1.0
e 134 115 1.0
e 134 92 1.0
e 134 404 1.0
e 134 508 1.0
e 135 229 1.0
e 135 632 2.0
e 135 488 2.0
e 135 136 1.0
e 136 5 1.0
e 136 404 1.0
e 136 178 1.0
e 136 225 1.0
e 137 615 1.0
e 137 320 1.0
e 137 115 1.0
e 137 392 1.0
e 138 318 2.0
e 138 421 1.0
e 138 306 1.0
e 138 50 1.0
e 139 392 1.0
e 139 607 1.0
e 139 491 1.0
e 139 528 1.0
e 140 289 1.0
e 140 262 1.0
e 140 204 2.0
e 140 174 1.0
e 141 36 1.0
e 141 116 2.0
e 141 401 1.0
e 141 289 2.0
e 142 227 1.0
e 142 263 1.0
e 142 349 2.0
e 142 176 1.0
e 143 427 1.0
e 143 349 1.0
e 143 469 1.0
e 143 432 2.0
e 144 216 1.0
e 144 80 26.0
e 144 243 1.0
e 144 461 1.0
e 145 604 19.0
e 145 21 1.0
e 145 212 1.0
e 145 314 1.0
e 146 293 1.0
e 146 158 2.0
e 146 429 1.0
e 146 226 1.0
e 147 204 1.0
e 147 384 1.0
e 147 396 2.0
e 147 496 32.0
e 148 354 1.0
e 148 591 1.0
e 148 1 1.0
e 148 459 1.0
e 149 363 1.0
e 149 543 1.0
e 149 463 2.0
e 149 554 2.0
e 150 504 2.0
e 150 356 1.0
e 150 438 1.0
e 150 458 1.0
e 151 513 1.0
e 151 349 1.0
e 151 244 1.0
e 151 94 1.0
e 152 281 1.0
e 152 517 1.0
e 152 259 1.0
e 152 232 1.0
e 153 437 1.0
e 153 222 1.0
e 153 101 1.0
e 153 342 1.0
e 154 449 1.0
e 154 583 1.0
e 154 184 2.0
e 154 65 2.0
e 155 102 1.0
e 155 201 1.0
e 155 84 1.0
e 155 392 1.0
e 156 155 1.0
e 156 143 1.0
e 156 305 2.0
e 156 458 1.0
e 157 450 16.0
e 157 591 18.0
e 157 236 30.0
e 157 207 28.0
e 157 596 17.0
e 157 42 20.0
e 157 252 30.0
e 157 167 25.0
e 157 58 28.0
e 157 234 7.0
e 157 515 45.0
e 157 496 26.0
e 157 571 17.0
e 158 124 2.0
e 158 284 1.0
e 158 181 2.0
e 158 191 1.0
e 159 587 1.0
e 159 146 1.0
e 159 296 1.0
e 159 500 24.0
e 160 554 2.0
e 160 83 1.0
e 160 77 1.0
e 161 2 2.0
e 161 254 1.0
e 161 392 1.0
e 161 296 3.0
e 162 605 1.0
e 162 511 21.0
e 162 258 1.0
e 162 507 2.0
e 163 238 2.0
e 163 283 2.0
e 163 561 2.0
e 163 614 2.0
e 164 18 1.0
e 164 601 1.0
e 164 296 1.0
e 164 48 1.0
e 165 497 1.0
e 165 461 1.0
e 165 104 1.0
e 165 511 47.0
e 166 227 2.0
e 166 450 2.0
e 166 576 1.0
e 166 182 1.0
e 167 526 46.0
e 167 220 10.0
e 167 52 12.0
e 167 81 4.0
e 167 496 2.0
e 167 175 4.0
e 167 303 7.0
e 167 372 26.0
e 167 234 26.0
e 168 169 1.0
e 168 601 1.0
e 168 216 2.0
e 168 373 1.0
e 169 37 1.0
e 169 83 1.0
e 169 166 1.0
e 169 88 1.0
e 170 51 1.0
e 170 497 1.0
e 170 4 11.0
e 170 49 1.0
e 171 126 1.0
e 171 304 1.0
e 171 201 2.0
e 171 579 2.0
e 172 512 1.0
e 172 581 1.0
e 172 266 1.0
e 172 296 1.0
e 173 175 21.0
e 173 197 1.0
e 173 493 1.0
e 173 552 1.0
e 174 468 1.0
e 174 399 2.0
e 174 130 1.0
e 174 527 1.0
e 175 347 49.0
e 175 433 2.0
e 175 45 23.0
e 175 267 42.0
e 175 157 22.0
e 175 234 38.0
e 175 472 43.0
e 175 252 40.0
e 175 523 21.0
e 175 443 45.0
e 176 380 1.0
e 176 285 1.0
e 176 374 3.0
e 176 88 1.0
e 177 74 15.0
e 177 571 2.0
e 177 275 1.0
e 177 434 1.0
e 178 567 1.0
e 178 371 1.0
e 178 181 1.0
e 178 407 1.0
e 179 477 1.0
e 179 212 1.0
e 179 517 1.0
e 179 75 1.0
e 180 187 1.0
e 180 376 1.0
e 180 563 1.0
e 180 545 1.0
e 181 619 11.0
e 181 100 1.0
e 181 489 1.0
e 181 36 1.0
e 182 190 1.0
e 182 604 46.0
e 182 269 3.0
e 182 17 1.0
e 183 96 1.0
e 183 2 2.0
e 183 112 44.0
e 183 134 1.0
e 184 571 21.0
e 184 67 1.0
e 184 458 1.0
e 184 390 1.0
e 185 48 1.0
e 185 583 2.0
e 185 99 1.0
e 186 256 1.0
e 186 552 1.0
e 186 216 2.0
e 186 373 2.0
e 187 538 1.0
e 187 50 1.0
e 187 405 2.0
e 187 320 1.0
e 188 543 1.0
e 188 303 19.0
e 188 0 1.0
e 188 10 1.0
e 189 284 1.0
e 189 144 1.0
e 189 355 1.0
e 189 449 1.0
e 190 331 1.0
e 190 594 1.0
e 190 450 1.0
e 190 165 2.0
e 191 635 48.0
e 191 342 1.0
e 191 365 1.0
e 191 234 38.0
e 192 50 1.0
e 192 580 1.0
e 192 377 1.0
e 192 171 2.0
e 193 494 1.0
e 193 227 2.0
e 193 571 15.0
e 193 99 2.0
e 194 559 2.0
e 194 153 1.0
e 194 152 2.0
e 194 472 8.0
e 195 473 1.0
e 195 484 1.0
e 195 514 1.0
e 195 102 1.0
e 196 46 1.0
e 196 480 1.0
e 196 541 1.0
e 196 631 1.0
e 197 177 1.0
e 197 433 1.0
e 197 78 2.0
e 197 79 1.0
e 198 617 1.0
e 198 192 2.0
e 198 603 1.0
e 198 500 44.0
e 199 444 1.0
e 199 221 1.0
e 199 430 1.0
e 199 485 2.0
e 200 108 1.0
e 200 105 1.0
e 200 266 1.0
e 200 161 2.0
e 201 256 1.0
e 201 289 2.0
e 201 398 1.0
e 201 421 1.0
e 202 252 12.0
e 202 295 2.0
e 202 435 1.0
e 202 263 1.0
e 203 14 1.0
e 203 293 2.0
e 203 599 1.0
e 203 506 1.0
e 204 172 1.0
e 204 274 2.0
e 204 195 1.0
e 204 68 2.0
e 205 382 1.0
e 205 200 1.0
e 205 621 1.0
e 205 128 1.0
e 206 455 1.0
e 206 568 1.0
e 206 582 1.0
e 206 286 1.0
e 207 189 1.0
e 207 379 2.0
e 207 557 1.0
e 208 145 1.0
e 208 498 1.0
e 208 61 1.0
e 208 588 1.0
e 209 551 1.0
e 209 403 2.0
e 209 285 2.0
e 209 524 1.0
e 210 162 2.0
e 210 293 1.0
e 210 441 1.0
e 210 415 1.0
e 211 415 2.0
e 211 318 1.0
e 211 521 1.0
e 211 337 1.0
e 212 320 1.0
e 212 345 1.0
e 212 42 19.0
e 212 96 2.0
e 213 28 2.0
e 213 127 1.0
e 213 290 1.0
e 213 394 1.0
e 214 308 1.0
e 214 451 1.0
e 214 380 1.0
e 214 276 1.0
e 215 4 27.0
e 215 548 1.0
e 215 420 1.0
e 215 616 1.0
e 216 535 1.0
e 216 564 3.0
e 216 600 2.0
e 216 462 2.0
e 217 425 1.0
e 217 352 48.0
e 217 165 1.0
e 217 478 1.0
e 218 167 13.0
e 218 241 1.0
e 218 149 2.0
e 218 342 1.0
e 219 394 1.0
e 219 263 1.0
e 219 628 1.0
e 219 606 40.0
e 220 196 1.0
e 220 87 1.0
e 220 96 1.0
e 220 299 1.0
e 221 145 2.0
e 221 209 1.0
e 221 462 1.0
e 221 292 1.0
e 222 198 2.0
e 222 368 1.0
e 222 190 1.0
e 222 570 1.0
e 223 260 2.0
e 223 288 2.0
e 223 367 1.0
e 223 348 1.0
e 224 561 1.0
e 224 437 1.0
e 224 326 1.0
e 224 419 2.0
e 225 486 2.0
e 225 21 2.0
e 225 48 1.0
e 225 480 1.0
e 226 242 2.0
e 226 387 1.0
e 226 88 1.0
e 226 166 1.0
e 227 223 2.0
e 227 588 1.0
e 227 202 1.0
e 227 58 4.0
e 228 96 1.0
e 228 44 1.0
e 228 0 1.0
e 228 57 2.0
e 229 284 1.0
e 229 193 1.0
e 229 137 1.0
e 229 29 2.0
e 230 435 1.0
e 230 504 3.0
e 230 392 1.0
e 230 239 2.0
e 231 614 1.0
e 231 606 41.0
e 231 235 1.0
e 231 467 3.0
e 232 631 2.0
e 232 245 1.0
e 232 101 1.0
e 232 515 6.0
e 233 35 1.0
e 233 279 1.0
e 233 195 1.0
e 233 119 1.0
e 234 94 27.0
e 234 610 14.0
e 234 419 26.0
e 234 244 14.0
e 234 74 27.0
e 234 252 29.0
e 234 596 24.0
e 234 303 48.0
e 235 619 46.0
e 235 632 1.0
e 235 310 1.0
e 235 38 3.0
e 236 624 1.0
e 236 522 1.0
e 236 55 2.0
e 236 243 2.0
e 237 131 1.0
e 237 407 1.0
e 237 307 1.0
e 237 5 1.0
e 238 557 1.0
e 238 6 1.0
e 238 298 1.0
e 238 90 1.0
e 239 441 1.0
e 239 364 22.0
e 239 251 1.0
e 239 199 1.0
e 240 100 1.0
e 240 556 1.0
e 240 324 1.0
e 240 399 1.0
e 241 6 1.0
e 241 604 45.0
e 241 140 1.0
e 241 429 1.0
e 242 563 2.0
e 242 530 1.0
e 242 477 1.0
e 242 276 2.0
e 243 16 1.0
e 243 87 1.0
e 243 537 1.0
e 243 49 1.0
e 244 593 1.0
e 244 535 1.0
e 244 48 2.0
e 244 346 2.0
e 245 261 1.0
e 245 602 6.0
e 245 341 1.0
e 245 270 1.0
e 246 407 1.0
e 246 134 1.0
e 246 209 1.0
e 246 76 1.0
e 247 381 1.0
e 247 46 1.0
e 247 173 2.0
e 247 362 1.0
e 248 394 2.0
e 248 494 2.0
e 248 229 1.0
e 248 463 2.0
e 249 222 1.0
e 249 376 1.0
e 249 149 1.0
e 249 338 44.0
e 250 133 1.0
e 250 341 1.0
e 250 10 1.0
e 250 174 1.0
e 251 248 2.0
e 251 369 3.0
e 251 464 1.0
e 251 166 1.0
e 252 196 19.0
e 252 73 4.0
e 252 526 24.0
e 252 144 43.0
e 252 303 43.0
e 252 322 37.0
e 252 330 33.0
e 253 593 1.0
e 253 275 1.0
e 253 445 1.0
e 253 408 1.0
e 254 437 1.0
e 254 277 1.0
e 254 211 1.0
e 254 206 2.0
e 255 65 1.0
e 255 208 1.0
e 255 481 1.0
e 255 419 1.0
e 256 439 1.0
e 256 197 2.0
e 256 82 2.0
e 256 334 1.0
e 257 632 1.0
e 257 550 1.0
e 257 167 6.0
e 257 297 1.0
e 258 424 1.0
e 258 374 1.0
e 258 598 3.0
e 258 512 1.0
e 259 109 1.0
e 259 557 1.0
e 259 158 2.0
e 259 84 1.0
e 260 75 1.0
e 260 410 3.0
e 260 573 2.0
e 260 180 1.0
e 261 167 4.0
e 261 563 1.0
e 261 523 9.0
e 261 289 1.0
e 262 116 1.0
e 262 279 1.0
e 262 91 1.0
e 262 303 26.0
e 263 420 1.0
e 263 89 1.0
e 263 95 1.0
e 263 112 20.0
e 264 591 1.0
e 264 475 1.0
e 264 349 1.0
e 264 376 1.0
e 265 511 28.0
e 265 75 2.0
e 265 275 2.0
e 265 395 1.0
e 266 599 1.0
e 266 566 1.0
e 266 9 1.0
e 266 176 2.0
e 267 245 2.0
e 267 85 1.0
e 267 472 38.0
e 267 461 1.0
e 268 468 1.0
e 268 160 1.0
e 268 239 2.0
e 268 576 1.0
e 269 194 1.0
e 269 230 1.0
e 269 84 1.0
e 269 59 1.0
e 270 228 1.0
e 270 285 2.0
e 270 474 1.0
e 270 252 5.0
e 271 610 1.0
e 271 487 36.0
e 271 136 1.0
e 271 96 1.0
e 272 611 39.0
e 272 429 1.0
e 272 387 2.0
e 272 519 2.0
e 273 191 1.0
e 273 253 1.0
e 273 469 1.0
e 273 165 1.0
e 274 557 1.0
e 274 465 2.0
e 274 66 1.0
e 274 166 1.0
e 275 119 1.0
e 275 120 1.0
e 275 621 1.0
e 275 153 1.0
e 276 535 1.0
e 276 332 2.0
e 276 199 1.0
e 276 571 22.0
e 277 589 2.0
e 277 68 1.0
e 277 40 1.0
e 277 460 1.0
e 278 541 1.0
e 278 236 1.0
e 278 420 1.0
e 278 552 1.0
e 279 92 1.0
e 279 401 1.0
e 279 104 1.0
e 279 582 1.0
e 280 474 1.0
e 280 119 1.0
e 280 494 1.0
e 280 268 1.0
e 281 564 1.0
e 281 194 2.0
e 281 488 1.0
e 281 103 1.0
e 282 519 1.0
e 282 344 1.0
e 282 230 1.0
e 282 219 2.0
e 283 474 1.0
e 283 169 1.0
e 283 43 1.0
e 283 595 2.0
e 284 45 1.0
e 284 474 1.0
e 284 305 1.0
e 284 418 1.0
e 285 206 1.0
e 285 202 1.0
e 285 332 2.0
e 285 14 1.0
e 286 79 1.0
e 286 444 1.0
e 286 529 1.0
e 286 620 2.0
e 287 523 35.0
e 287 228 1.0
e 287 87 1.0
e 287 623 2.0
e 288 246 2.0
e 288 554 2.0
e 288 386 1.0
e 288 523 2.0
e 289 550 1.0
e 289 32 49.0
e 289 239 1.0
e 289 313 1.0
e 290 475 1.0
e 290 201 1.0
e 290 413 3.0
e 290 572 1.0
e 291 56 1.0
e 291 415 2.0
e 291 455 2.0
e 291 225 2.0
e 292 512 1.0
e 292 253 1.0
e 292 400 1.0
e 292 68 1.0
e 293 532 1.0
e 293 68 1.0
e 293 280 1.0
e 293 561 1.0
e 294 251 1.0
e 294 439 1.0
e 294 230 1.0
e 294 323 1.0
e 295 636 1.0
e 295 271 2.0
e 295 330 4.0
e 295 333 1.0
e 296 62 1.0
e 296 331 1.0
e 296 474 1.0
e 296 189 1.0
e 297 107 2.0
e 297 260 3.0
e 297 545 1.0
e 297 484 1.0
e 298 409 1.0
e 298 272 1.0
e 298 113 1.0
e 298 480 1.0
e 299 107 2.0
e 299 240 1.0
e 299 345 1.0
e 299 302 1.0
e 300 439 1.0
e 300 290 1.0
e 300 42 27.0
e 300 481 2.0
e 301 409 1.0
e 301 238 1.0
e 301 262 1.0
e 301 93 1.0
e 302 553 1.0
e 302 391 1.0
e 302 359 2.0
e 302 273 1.0
e 303 414 15.0
e 303 257 20.0
e 303 197 25.0
e 303 623 22.0
e 304 188 1.0
e 304 29 1.0
e 304 248 1.0
e 304 558 1.0
e 305 330 23.0
e 305 390 1.0
e 305 184 2.0
e 305 467 1.0
e 306 538 1.0
e 306 438 2.0
e 306 36 1.0
e 306 520 1.0
e 307 117 1.0
e 307 526 1.0
e 307 293 1.0
e 307 314 1.0
e 308 7 2.0
e 308 613 2.0
e 308 268 2.0
e 308 380 2.0
e 309 466 1.0
e 309 483 2.0
e 309 166 2.0
e 309 570 2.0
e 310 212 2.0
e 310 113 1.0
e 310 13 2.0
e 310 228 1.0
e 311 415 3.0
e 311 242 2.0
e 311 19 1.0
e 311 328 1.0
e 312 187 2.0
e 312 348 2.0
e 312 156 2.0
e 312 50 2.0
e 313 128 1.0
e 313 406 2.0
e 313 362 1.0
e 313 409 3.0
e 314 269 1.0
e 314 488 2.0
e 314 232 1.0
e 314 275 1.0
e 315 185 1.0
e 315 588 1.0
e 315 497 1.0
e 315 623 1.0
e 316 586 1.0
e 316 402 1.0
e 316 384 1.0
e 316 547 1.0
e 317 484 2.0
e 317 602 33.0
e 317 518 1.0
e 317 526 1.0
e 318 338 6.0
e 318 221 1.0
e 318 622 2.0
e 318 5 1.0
e 319 172 1.0
e 319 360 1.0
e 319 540 1.0
e 319 513 1.0
e 320 518 1.0
e 320 43 1.0
e 320 257 1.0
e 320 219 1.0
e 321 179 1.0
e 321 404 2.0
e 321 72 3.0
e 322 496 16.0
e 322 418 43.0
e 322 181 46.0
e 322 148 24.0
e 322 74 28.0
e 322 330 14.0
e 322 167 26.0
e 322 443 16.0
e 322 338 9.0
e 322 106 15.0
e 323 152 1.0
e 323 6 2.0
e 323 42 42.0
e 323 127 1.0
e 324 366 1.0
e 324 15 1.0
e 324 465 1.0
e 324 107 1.0
e 325 389 2.0
e 325 306 1.0
e 325 590 2.0
e 325 69 1.0
e 326 270 1.0
e 326 109 1.0
e 326 477 1.0
e 326 258 1.0
e 327 598 1.0
e 327 437 1.0
e 327 395 1.0
e 327 185 1.0
e 328 606 34.0
e 328 87 1.0
e 328 155 1.0
e 328 399 2.0
e 329 231 1.0
e 329 40 2.0
e 329 259 1.0
e 329 573 2.0
e 330 41 13.0
e 330 216 7.0
e 330 333 13.0
e 330 479 15.0
e 330 338 10.0
e 331 443 3.0
e 331 562 1.0
e 331 103 2.0
e 331 384 1.0
e 332 455 1.0
e 332 394 1.0
e 332 290 2.0
e 332 428 1.0
e 333 160 1.0
e 333 379 1.0
e 333 486 1.0
e 333 334 1.0
e 334 441 2.0
e 334 275 1.0
e 334 538 1.0
e 334 300 2.0
e 335 9 1.0
e 335 359 1.0
e 335 211 1.0
e 335 523 9.0
e 336 267 1.0
e 336 535 1.0
e 336 556 1.0
e 336 117 2.0
e 337 603 2.0
e 337 279 1.0
e 337 174 1.0
e 337 456 1.0
e 338 312 24.0
e 338 110 26.0
e 338 242 27.0
e 338 96 49.0
e 338 343 4.0
e 338 352 31.0
e 338 252 49.0
e 338 353 48.0
e 339 237 1.0
e 339 551 1.0
e 339 171 1.0
e 339 130 1.0
e 340 343 9.0
e 340 214 1.0
e 340 236 1.0
e 340 417 9.0
e 341 5 1.0
e 341 208 1.0
e 341 173 1.0
e 341 285 2.0
e 342 294 1.0
e 342 144 1.0
e 342 227 1.0
e 342 574 1.0
e 343 67 28.0
e 343 495 5.0
e 343 598 20.0
e 343 506 37.0
e 343 555 37.0
e 343 630 43.0
e 343 32 23.0
e 344 1 1.0
e 344 231 1.0
e 344 66 1.0
e 344 93 1.0
e 345 451 2.0
e 345 513 1.0
e 345 66 1.0
e 345 190 2.0
e 346 100 1.0
e 346 477 1.0
e 346 7 3.0
e 346 273 1.0
e 347 367 1.0
e 347 341 1.0
e 347 219 1.0
e 347 115 1.0
e 348 602 11.0
e 348 388 1.0
e 348 59 3.0
e 348 447 2.0
e 349 224 1.0
e 349 484 2.0
e 349 571 26.0
e 349 202 2.0
e 350 227 2.0
e 350 378 2.0
e 350 15 1.0
e 351 559 1.0
e 351 560 1.0
e 351 509 1.0
e 351 308 1.0
e 352 51 37.0
e 352 610 24.0
e 352 104 10.0
e 352 382 48.0
e 352 252 11.0
e 352 58 4.0
e 352 417 40.0
e 352 322 9.0
e 352 523 47.0
e 352 555 43.0
e 352 630 10.0
e 352 472 10.0
e 352 565 45.0
e 352 596 18.0
e 353 68 1.0
e 353 483 2.0
e 353 635 2.0
e 353 624 1.0
e 354 323 1.0
e 354 130 1.0
e 354 485 2.0
e 354 301 1.0
e 355 255 1.0
e 355 423 3.0
e 355 63 1.0
e 356 262 1.0
e 356 1 1.0
e 356 488 1.0
e 356 48 2.0
e 357 67 1.0
e 357 460 1.0
e 357 147 1.0
e 357 25 1.0
e 358 606 39.0
e 358 23 1.0
e 358 104 3.0
e 358 100 1.0
e 359 4 28.0
e 359 402 1.0
e 359 179 1.0
e 359 288 1.0
e 360 506 1.0
e 360 172 1.0
e 360 37 1.0
e 360 129 1.0
e 361 195 1.0
e 361 150 1.0
e 361 445 1.0
e 361 551 1.0
e 362 552 1.0
e 362 203 1.0
e 362 323 2.0
e 362 193 2.0
e 363 309 2.0
e 363 382 2.0
e 363 518 1.0
e 363 25 2.0
e 364 602 21.0
e 364 594 15.0
e 364 159 8.0
e 364 502 48.0
e 364 167 43.0
e 364 58 20.0
e 364 80 27.0
e 364 523 16.0
e 364 604 37.0
e 364 252 36.0
e 365 459 1.0
e 365 297 1.0
e 365 309 1.0
e 365 180 1.0
e 366 600 1.0
e 366 515 42.0
e 366 443 25.0
e 366 512 1.0
e 367 58 10.0
e 367 250 1.0
e 367 79 1.0
e 368 83 1.0
e 368 71 2.0
e 368 333 2.0
e 368 576 1.0
e 369 440 1.0
e 369 345 2.0
e 369 327 1.0
e 369 280 2.0
e 370 106 3.0
e 370 588 1.0
e 370 251 2.0
e 370 584 1.0
e 371 175 40.0
e 371 117 1.0
e 371 355 3.0
e 371 526 1.0
e 372 519 42.0
e 372 595 20.0
e 372 12 6.0
e 372 8 43.0
e 372 234 46.0
e 372 175 8.0
e 372 322 49.0
e 372 343 5.0
e 372 330 40.0
e 372 80 49.0
e 372 157 34.0
e 372 443 34.0
e 372 338 33.0
e 373 356 1.0
e 373 522 2.0
e 373 194 1.0
e 373 449 1.0
e 374 568 1.0
e 374 52 1.0
e 374 293 1.0
e 374 474 1.0
e 375 501 1.0
e 375 139 1.0
e 375 23 2.0
e 375 306 2.0
e 376 62 1.0
e 376 190 1.0
e 376 39 1.0
e 376 380 1.0
e 377 3 1.0
e 377 2 1.0
e 377 634 3.0
e 377 496 45.0
e 378 416 2.0
e 378 212 2.0
e 378 271 2.0
e 378 352 48.0
e 379 631 1.0
e 379 167 31.0
e 379 472 22.0
e 379 612 1.0
e 380 137 1.0
e 380 305 1.0
e 380 20 1.0
e 380 53 1.0
e 381 143 1.0
e 381 91 1.0
e 381 263 1.0
e 381 61 1.0
e 382 162 1.0
e 382 215 1.0
e 382 306 2.0
e 382 480 1.0
e 383 128 1.0
e 383 621 1.0
e 383 526 1.0
e 383 196 2.0
e 384 602 5.0
e 384 406 1.0
e 384 189 1.0
e 384 388 2.0
e 385 335 2.0
e 385 102 3.0
e 385 365 1.0
e 385 613 1.0
e 386 182 1.0
e 386 375 1.0
e 386 184 1.0
e 386 475 1.0
e 387 423 1.0
e 387 93 1.0
e 387 17 1.0
e 387 634 1.0
e 388 178 1.0
e 388 119 1.0
e 388 545 1.0
e 388 515 31.0
e 389 502 1.0
e 389 515 47.0
e 389 572 1.0
e 389 469 1.0
e 390 439 2.0
e 390 205 1.0
e 390 69 1.0
e 390 4 43.0
e 391 358 1.0
e 391 8 1.0
e 391 364 20.0
e 391 195 1.0
e 392 108 1.0
e 392 373 2.0
e 392 62 1.0
e 392 624 1.0
e 393 248 1.0
e 393 278 1.0
e 393 190 1.0
e 393 367 1.0
e 394 384 2.0
e 394 70 2.0
e 394 500 19.0
e 394 132 1.0
e 395 479 2.0
e 395 509 1.0
e 395 534 1.0
e 395 91 2.0
e 396 375 3.0
e 396 455 1.0
e 396 499 1.0
e 396 313 2.0
e 397 467 1.0
e 397 367 1.0
e 397 279 1.0
e 397 584 1.0
e 398 225 1.0
e 398 325 2.0
e 398 157 17.0
e 398 354 1.0
e 399 513 1.0
e 399 479 1.0
e 399 397 1.0
e 399 571 21.0
e 400 215 2.0
e 400 107 2.0
e 400 111 3.0
e 400 531 1.0
e 401 165 1.0
e 401 390 1.0
e 401 506 1.0
e 401 153 1.0
e 402 436 2.0
e 402 456 2.0
e 402 460 2.0
e 402 314 2.0
e 403 611 20.0
e 403 357 2.0
e 403 263 1.0
e 403 592 1.0
e 404 297 2.0
e 404 33 1.0
e 404 230 3.0
e 404 488 1.0
e 405 437 2.0
e 405 331 1.0
e 405 45 1.0
e 405 2 1.0
e 406 322 37.0
e 406 17 1.0
e 406 468 1.0
e 406 593 1.0
e 407 181 1.0
e 407 496 43.0
e 407 617 1.0
e 407 364 45.0
e 408 315 2.0
e 408 278 1.0
e 408 485 2.0
e 408 556 1.0
e 409 471 1.0
e 409 64 1.0
e 409 273 3.0
e 409 412 2.0
e 410 551 1.0
e 410 428 2.0
e 410 488 1.0
e 410 56 1.0
e 411 209 1.0
e 411 390 1.0
e 411 581 1.0
e 411 576 1.0
e 412 43 1.0
e 412 328 1.0
e 412 205 1.0
e 412 316 1.0
e 413 373 1.0
e 413 637 1.0
e 413 191 1.0
e 413 337 1.0
e 414 55 1.0
e 414 299 1.0
e 414 239 1.0
e 415 296 1.0
e 415 90 1.0
e 415 228 1.0
e 415 354 2.0
e 416 164 1.0
e 416 483 1.0
e 416 542 2.0
e 416 419 1.0
e 417 54 22.0
e 417 367 36.0
e 417 299 48.0
e 417 321 23.0
e 417 523 17.0
e 417 157 9.0
e 417 167 22.0
e 417 106 8.0
e 417 234 29.0
e 417 555 13.0
e 418 445 2.0
e 418 134 1.0
e 418 365 2.0
e 418 529 2.0
e 419 98 2.0
e 419 552 1.0
e 419 239 1.0
e 419 538 2.0
e 420 148 2.0
e 420 158 1.0
e 420 310 1.0
e 420 330 10.0
e 421 296 1.0
e 421 96 1.0
e 421 382 3.0
e 421 32 2.0
e 422 379 1.0
e 422 34 2.0
e 422 198 1.0
e 422 235 2.0
e 423 528 2.0
e 423 412 3.0
e 423 32 29.0
e 423 448 1.0
e 424 343 44.0
e 424 42 33.0
e 424 452 1.0
e 424 83 1.0
e 425 449 1.0
e 425 59 1.0
e 425 271 1.0
e 425 171 2.0
e 426 516 1.0
e 426 158 2.0
e 426 7 1.0
e 426 481 3.0
e 427 351 1.0
e 427 544 2.0
e 427 452 1.0
e 427 573 2.0
e 428 270 1.0
e 428 475 1.0
e 428 58 11.0
e 428 291 1.0
e 429 529 1.0
e 429 302 1.0
e 429 539 1.0
e 429 148 1.0
e 430 335 1.0
e 430 542 1.0
e 430 120 1.0
e 430 213 1.0
e 431 265 2.0
e 431 250 2.0
e 431 77 1.0
e 431 292 1.0
e 432 162 1.0
e 432 604 41.0
e 432 340 2.0
e 432 316 1.0
e 433 119 3.0
e 433 595 2.0
e 433 225 1.0
e 433 271 1.0
e 434 533 1.0
e 434 631 1.0
e 434 637 1.0
e 434 184 2.0
e 435 499 1.0
e 435 430 1.0
e 435 104 1.0
e 435 277 1.0
e 436 547 1.0
e 436 602 18.0
e 436 416 1.0
e 436 327 1.0
e 437 469 1.0
e 437 362 1.0
e 437 382 1.0
e 437 411 1.0
e 438 339 3.0
e 438 49 1.0
e 438 578 2.0
e 438 630 14.0
e 439 39 1.0
e 439 91 2.0
e 439 587 1.0
e 439 507 1.0
e 440 498 1.0
e 440 433 1.0
e 440 72 1.0
e 440 354 1.0
e 441 549 2.0
e 441 272 3.0
e 441 252 47.0
e 441 409 1.0
e 442 425 1.0
e 442 303 10.0
e 442 452 1.0
e 442 285 1.0
e 443 286 13.0
e 443 163 33.0
e 443 481 7.0
e 443 352 38.0
e 443 596 38.0
e 443 487 24.0
e 443 515 32.0
e 444 526 1.0
e 444 447 1.0
e 444 15 1.0
e 444 363 1.0
e 445 175 40.0
e 445 576 1.0
e 445 216 1.0
e 445 487 25.0
e 446 331 1.0
e 446 634 1.0
e 446 220 2.0
e 446 539 1.0
e 447 68 1.0
e 447 571 8.0
e 447 636 1.0
e 448 450 1.0
e 448 606 19.0
e 448 289 1.0
e 448 522 2.0
e 449 493 1.0
e 449 292 1.0
e 449 247 1.0
e 449 586 1.0
e 450 192 2.0
e 450 255 1.0
e 450 286 3.0
e 450 365 2.0
e 451 422 2.0
e 451 88 2.0
e 451 631 3.0
e 451 155 1.0
e 452 536 1.0
e 452 400 1.0
e 452 249 1.0
e 452 179 1.0
e 453 369 2.0
e 453 503 1.0
e 453 356 1.0
e 453 354 1.0
e 454 538 1.0
e 454 608 1.0
e 454 103 1.0
e 454 357 1.0
e 455 497 1.0
e 455 148 1.0
e 455 342 1.0
e 455 274 1.0
e 456 138 2.0
e 456 270 1.0
e 456 542 2.0
e 456 312 2.0
e 457 431 1.0
e 457 354 1.0
e 457 347 2.0
e 457 446 2.0
e 458 359 2.0
e 458 228 1.0
e 458 585 1.0
e 458 193 2.0
e 459 169 1.0
e 459 523 48.0
e 459 226 2.0
e 459 193 2.0
e 460 121 1.0
e 460 82 1.0
e 460 614 1.0
e 460 6 1.0
e 461 81 1.0
e 461 27 1.0
e 461 269 1.0
e 461 68 1.0
e 462 400 2.0
e 462 619 14.0
e 462 435 1.0
e 462 637 1.0
e 463 361 2.0
e 463 81 2.0
e 463 537 1.0
e 463 482 1.0
e 464 493 1.0
e 464 59 1.0
e 464 449 1.0
e 464 538 1.0
e 465 221 1.0
e 465 164 1.0
e 465 487 17.0
e 465 429 2.0
e 466 152 1.0
e 466 204 2.0
e 466 411 2.0
e 466 457 1.0
e 467 217 1.0
e 467 284 1.0
e 467 520 1.0
e 467 267 1.0
e 468 277 1.0
e 468 630 37.0
e 468 341 2.0
e 468 166 2.0
e 469 403 2.0
e 469 631 1.0
e 469 321 1.0
e 469 564 1.0
e 470 380 1.0
e 470 466 1.0
e 470 579 2.0
e 470 269 1.0
e 471 207 1.0
e 471 374 1.0
e 471 359 1.0
e 471 13 1.0
e 472 443 23.0
e 472 504 4.0
e 472 521 15.0
e 472 355 37.0
e 472 234 29.0
e 472 322 29.0
e 472 372 23.0
e 473 423 2.0
e 473 584 1.0
e 473 182 2.0
e 473 109 1.0
e 474 266 2.0
e 474 508 1.0
e 474 146 1.0
e 474 116 1.0
e 475 8 1.0
e 475 438 2.0
e 475 91 2.0
e 475 356 1.0
e 476 468 2.0
e 476 535 1.0
e 476 98 1.0
e 476 323 1.0
e 477 65 1.0
e 477 221 1.0
e 477 521 1.0
e 477 137 1.0
e 478 495 1.0
e 478 533 1.0
e 478 439 2.0
e 478 23 1.0
e 479 30 1.0
e 479 270 2.0
e 479 88 1.0
e 479 542 2.0
e 480 548 2.0
e 480 66 1.0
e 480 338 10.0
e 480 267 1.0
e 481 2 1.0
e 481 422 2.0
e 481 399 1.0
e 481 126 1.0
e 482 185 2.0
e 482 49 1.0
e 482 161 1.0
e 482 292 1.0
e 483 638 1.0
e 483 57 1.0
e 483 306 1.0
e 483 153 1.0
e 484 401 1.0
e 484 637 1.0
e 484 346 1.0
e 484 110 1.0
e 485 121 1.0
e 485 14 2.0
e 485 254 1.0
e 485 130 1.0
e 486 74 31.0
e 486 64 1.0
e 486 122 3.0
e 486 393 1.0
e 487 635 7.0
e 487 367 31.0
e 487 343 43.0
e 487 385 44.0
e 487 330 37.0
e 487 555 47.0
e 487 80 44.0
e 487 472 10.0
e 487 338 40.0
e 487 352 10.0
e 487 175 40.0
e 487 364 35.0
e 488 28 1.0
e 488 251 2.0
e 488 576 1.0
e 488 426 1.0
e 489 461 1.0
e 489 211 2.0
e 489 606 19.0
e 489 390 1.0
e 490 315 1.0
e 490 478 1.0
e 490 350 1.0
e 490 125 1.0
e 491 369 1.0
e 491 288 3.0
e 491 65 2.0
e 491 57 2.0
e 492 29 1.0
e 492 309 1.0
e 492 211 1.0
e 492 527 2.0
e 493 479 2.0
e 493 422 1.0
e 493 4 16.0
e 493 74 27.0
e 494 204 1.0
e 494 105 1.0
e 494 585 1.0
e 494 181 1.0
e 495 177 1.0
e 495 124 1.0
e 495 290 1.0
e 495 339 2.0
e 496 259 3.0
e 496 383 8.0
e 496 402 16.0
e 496 345 8.0
e 496 106 3.0
e 496 472 46.0
e 496 112 31.0
e 496 175 15.0
e 497 560 1.0
e 497 13 1.0
e 497 23 1.0
e 497 413 1.0
e 498 492 1.0
e 498 480 1.0
e 498 473 1.0
e 498 223 1.0
e 499 265 1.0
e 499 552 2.0
e 499 538 2.0
e 499 132 2.0
e 500 375 7.0
e 500 176 3.0
e 500 107 47.0
e 500 192 4.0
e 500 372 41.0
e 500 606 28.0
e 500 596 37.0
e 500 443 2.0
e 500 571 12.0
e 500 330 48.0
e 500 417 24.0
e 500 338 24.0
e 500 635 26.0
e 501 588 1.0
e 501 535 1.0
e 501 623 2.0
e 501 249 1.0
e 502 93 1.0
e 502 439 1.0
e 502 516 1.0
e 502 3 1.0
e 503 560 1.0
e 503 15 1.0
e 503 282 1.0
e 503 285 1.0
e 504 586 2.0
e 504 564 1.0
e 504 546 1.0
e 504 301 2.0
e 505 561 1.0
e 505 78 1.0
e 505 62 2.0
e 505 486 1.0
e 506 81 1.0
e 506 235 2.0
e 506 279 2.0
e 506 623 1.0
e 507 545 1.0
e 507 396 1.0
e 507 175 35.0
e 507 239 1.0
e 508 595 1.0
e 508 60 1.0
e 508 280 1.0
e 508 35 1.0
e 509 6 1.0
e 509 286 2.0
e 509 217 2.0
e 509 66 1.0
e 510 302 1.0
e 510 8 1.0
e 510 25 1.0
e 510 333 1.0
e 511 161 45.0
e 511 303 45.0
e 511 65 24.0
e 511 61 8.0
e 511 112 18.0
e 511 343 30.0
e 511 619 4.0
e 511 571 28.0
e 511 487 40.0
e 511 630 3.0
e 512 520 1.0
e 512 402 1.0
e 512 189 1.0
e 512 521 1.0
e 513 68 1.0
e 513 450 1.0
e 513 456 1.0
e 513 59 1.0
e 514 387 1.0
e 514 399 2.0
e 514 345 1.0
e 514 139 1.0
e 515 586 5.0
e 515 343 18.0
e 515 539 13.0
e 515 421 24.0
e 515 112 8.0
e 515 596 12.0
e 515 352 49.0
e 515 417 9.0
e 515 364 28.0
e 516 323 2.0
e 516 93 1.0
e 516 471 1.0
e 516 559 1.0
e 517 386 1.0
e 517 469 2.0
e 517 258 1.0
e 517 40 1.0
e 518 0 1.0
e 518 539 1.0
e 518 132 2.0
e 518 368 1.0
e 519 251 2.0
e 519 442 1.0
e 519 585 2.0
e 519 502 1.0
e 520 540 1.0
e 520 264 1.0
e 520 170 2.0
e 520 492 1.0
e 521 192 1.0
e 521 440 1.0
e 521 601 1.0
e 521 63 2.0
e 522 159 1.0
e 522 567 1.0
e 522 330 32.0
e 522 90 2.0
e 523 580 18.0
e 523 536 14.0
e 523 308 33.0
e 523 87 48.0
e 523 472 31.0
e 523 443 45.0
e 523 372 47.0
e 523 343 36.0
e 524 633 1.0
e 524 240 1.0
e 524 235 1.0
e 524 69 1.0
e 525 124 1.0
e 525 145 2.0
e 525 367 2.0
e 525 325 1.0
e 526 81 1.0
e 526 155 1.0
e 526 19 1.0
e 526 181 1.0
e 527 115 1.0
e 527 299 1.0
e 527 9 1.0
e 527 624 1.0
e 528 249 1.0
e 528 223 1.0
e 528 284 1.0
e 528 612 1.0
e 529 589 1.0
e 529 313 1.0
e 529 73 1.0
e 529 256 1.0
e 530 169 1.0
e 530 28 1.0
e 530 35 1.0
e 530 362 1.0
e 531 14 1.0
e 531 107 1.0
e 531 464 1.0
e 531 546 1.0
e 532 516 1.0
e 532 263 1.0
e 532 193 1.0
e 532 607 1.0
e 533 479 2.0
e 533 292 2.0
e 533 499 1.0
e 533 635 5.0
e 534 294 1.0
e 534 498 1.0
e 534 119 2.0
e 534 329 2.0
e 535 296 1.0
e 535 637 1.0
e 535 547 1.0
e 535 638 1.0
e 536 525 2.0
e 536 336 2.0
e 536 246 2.0
e 536 148 1.0
e 537 464 1.0
e 537 7 1.0
e 537 593 1.0
e 537 497 1.0
e 538 151 1.0
e 538 539 1.0
e 538 533 1.0
e 538 135 1.0
e 539 620 1.0
e 539 286 1.0
e 539 579 1.0
e 539 47 1.0
e 540 286 2.0
e 540 91 1.0
e 540 478 1.0
e 540 164 1.0
e 541 606 36.0
e 541 564 1.0
e 541 467 2.0
e 541 387 1.0
e 542 154 1.0
e 542 3 1.0
e 542 323 2.0
e 542 637 1.0
e 543 14 1.0
e 543 128 1.0
e 543 87 1.0
e 543 459 3.0
e 544 551 1.0
e 544 76 1.0
e 544 230 1.0
e 544 171 1.0
e 545 550 1.0
e 545 633 1.0
e 545 161 2.0
e 545 524 1.0
e 546 435 1.0
e 546 94 1.0
e 546 249 1.0
e 546 621 1.0
e 547 496 24.0
e 547 553 1.0
e 547 205 2.0
e 548 398 1.0
e 548 181 1.0
e 548 393 1.0
e 548 549 1.0
e 549 316 1.0
e 549 94 2.0
e 549 391 1.0
e 549 142 2.0
e 550 149 1.0
e 550 151 1.0
e 550 465 2.0
e 550 454 1.0
e 551 251 1.0
e 551 104 1.0
e 551 21 2.0
e 551 224 1.0
e 552 304 1.0
e 552 293 2.0
e 552 140 2.0
e 552 606 1.0
e 553 395 2.0
e 553 74 49.0
e 553 127 1.0
e 553 549 2.0
e 554 498 1.0
e 554 560 1.0
e 554 606 28.0
e 554 226 1.0
e 555 454 19.0
e 555 97 45.0
e 555 148 38.0
e 555 451 46.0
e 555 364 11.0
e 555 443 4.0
e 555 571 11.0
e 555 496 16.0
e 555 500 31.0
e 555 511 26.0
e 556 88 1.0
e 556 193 1.0
e 556 93 1.0
e 556 328 2.0
e 557 242 1.0
e 557 258 2.0
e 557 499 1.0
e 557 335 1.0
e 558 614 1.0
e 558 43 1.0
e 558 310 1.0
e 558 548 1.0
e 559 185 1.0
e 559 557 2.0
e 559 161 1.0
e 559 593 1.0
e 560 119 1.0
e 560 114 1.0
e 560 373 3.0
e 560 626 2.0
e 561 360 2.0
e 561 311 1.0
e 561 322 46.0
e 561 86 2.0
e 562 121 1.0
e 562 14 1.0
e 562 142 2.0
e 562 127 1.0
e 563 162 1.0
e 563 159 1.0
e 563 43 1.0
e 563 408 1.0
e 564 267 1.0
e 564 556 1.0
e 564 367 1.0
e 564 62 2.0
e 565 508 2.0
e 565 545 1.0
e 565 103 1.0
e 565 486 2.0
e 566 178 1.0
e 566 218 3.0
e 566 621 1.0
e 566 629 1.0
e 567 205 1.0
e 567 589 2.0
e 567 266 1.0
e 567 297 1.0
e 568 597 1.0
e 568 485 1.0
e 568 316 1.0
e 568 362 1.0
e 569 385 1.0
e 569 0 1.0
e 569 474 1.0
e 569 68 1.0
e 570 102 1.0
e 570 58 47.0
e 570 194 2.0
e 570 177 1.0
e 571 142 26.0
e 571 87 37.0
e 571 414 35.0
e 571 53 44.0
e 571 417 20.0
e 572 403 1.0
e 572 636 1.0
e 572 632 1.0
e 572 2 1.0
e 573 281 1.0
e 573 298 1.0
e 573 596 8.0
e 573 93 2.0
e 574 180 1.0
e 574 550 1.0
e 574 553 2.0
e 574 344 2.0
e 575 98 1.0
e 575 140 1.0
e 575 62 1.0
e 575 428 2.0
e 576 403 1.0
e 576 198 3.0
e 576 56 1.0
e 576 119 1.0
e 577 182 1.0
e 577 40 1.0
e 577 627 1.0
e 577 530 1.0
e 578 194 2.0
e 578 456 1.0
e 578 65 1.0
e 578 199 1.0
e 579 572 1.0
e 579 128 1.0
e 579 32 38.0
e 579 141 3.0
e 580 482 1.0
e 580 426 1.0
e 580 583 1.0
e 580 218 2.0
e 581 203 1.0
e 581 497 1.0
e 581 319 3.0
e 581 450 1.0
e 582 534 1.0
e 582 82 2.0
e 582 491 1.0
e 583 347 1.0
e 583 156 1.0
e 583 226 1.0
e 583 308 1.0
e 584 174 1.0
e 584 282 1.0
e 584 482 1.0
e 584 86 2.0
e 585 395 1.0
e 585 618 1.0
e 585 181 1.0
e 585 325 1.0
e 586 433 1.0
e 586 550 1.0
e 586 196 2.0
e 586 184 2.0
e 587 16 1.0
e 587 475 1.0
e 587 457 1.0
e 587 230 1.0
e 588 287 1.0
e 588 46 1.0
e 588 592 1.0
e 589 132 2.0
e 589 475 1.0
e 589 203 2.0
e 589 200 1.0
e 590 195 1.0
e 590 244 2.0
e 590 32 17.0
e 590 404 1.0
e 591 158 1.0
e 591 10 1.0
e 591 299 2.0
e 591 274 1.0
e 592 282 1.0
e 592 240 1.0
e 592 377 1.0
e 592 201 1.0
e 593 438 2.0
e 593 462 1.0
e 593 40 1.0
e 593 336 1.0
e 594 49 1.0
e 594 511 46.0
e 594 567 1.0
e 594 504 1.0
e 595 552 3.0
e 595 30 2.0
e 595 624 1.0
e 595 615 2.0
e 596 405 6.0
e 596 490 27.0
e 596 132 46.0
e 596 400 24.0
e 597 592 2.0
e 597 319 2.0
e 597 274 1.0
e 597 230 2.0
e 598 390 1.0
e 598 613 1.0
e 598 415 2.0
e 598 622 2.0
e 599 609 1.0
e 599 122 1.0
e 599 578 1.0
e 599 434 1.0
e 600 66 1.0
e 600 14 1.0
e 600 575 1.0
e 600 511 36.0
e 601 407 2.0
e 601 165 1.0
e 601 102 1.0
e 601 597 3.0
e 602 510 17.0
e 602 490 37.0
e 602 447 13.0
e 602 386 11.0
e 602 604 8.0
e 602 487 35.0
e 602 496 24.0
e 603 305 2.0
e 603 5 1.0
e 603 417 8.0
e 603 47 1.0
e 604 189 44.0
e 604 525 40.0
e 604 299 28.0
e 604 416 29.0
e 604 487 44.0
e 604 496 35.0
e 604 500 20.0
e 604 511 15.0
e 604 515 17.0
e 604 523 40.0
e 605 78 1.0
e 605 132 1.0
e 605 86 1.0
e 605 189 1.0
e 606 313 39.0
e 606 338 45.0
e 606 538 21.0
e 606 417 43.0
e 606 511 23.0
e 606 630 44.0
e 607 495 1.0
e 607 186 2.0
e 607 394 2.0
e 607 42 14.0
e 608 499 2.0
e 608 630 6.0
e 608 8 1.0
e 608 35 2.0
e 609 308 3.0
e 609 244 1.0
e 609 305 1.0
e 609 274 1.0
e 610 201 1.0
e 610 354 1.0
e 610 123 1.0
e 610 227 2.0
e 611 64 48.0
e 611 383 20.0
e 611 278 7.0
e 611 371 15.0
e 611 555 37.0
e 611 500 15.0
e 611 515 24.0
e 611 523 20.0
e 611 571 23.0
e 611 596 21.0
e 611 602 25.0
e 611 604 10.0
e 612 354 1.0
e 612 226 1.0
e 612 96 1.0
e 612 591 1.0
e 613 273 1.0
e 613 501 1.0
e 613 250 1.0
e 613 146 1.0
e 614 605 1.0
e 614 317 2.0
e 614 521 1.0
e 614 415 1.0
e 615 325 1.0
e 615 405 1.0
e 615 5 1.0
e 615 592 1.0
e 616 563 1.0
e 616 351 1.0
e 616 86 1.0
e 616 241 1.0
e 617 160 1.0
e 617 247 1.0
e 617 490 1.0
e 617 138 2.0
e 618 368 1.0
e 618 246 1.0
e 618 231 1.0
e 618 350 1.0
e 619 580 49.0
e 619 493 4.0
e 619 215 26.0
e 619 368 38.0
e 619 515 15.0
e 619 523 49.0
e 619 596 27.0
e 619 555 12.0
e 619 571 49.0
e 619 602 43.0
e 619 604 24.0
e 620 438 2.0
e 620 580 1.0
e 620 473 1.0
e 620 332 1.0
e 621 78 1.0
e 621 372 16.0
e 621 32 29.0
e 621 269 1.0
e 622 482 1.0
e 622 367 1.0
e 622 231 1.0
e 622 120 1.0
e 623 288 2.0
e 623 254 1.0
e 623 509 1.0
e 623 138 1.0
e 624 72 1.0
e 624 289 2.0
e 624 55 1.0
e 624 81 2.0
e 625 156 1.0
e 625 451 2.0
e 625 531 2.0
e 625 38 2.0
e 626 593 2.0
e 626 336 1.0
e 626 343 3.0
e 626 508 2.0
e 627 341 1.0
e 627 300 1.0
e 627 586 1.0
e 627 629 1.0
e 628 171 1.0
e 628 307 1.0
e 628 355 3.0
e 628 210 1.0
e 629 123 1.0
e 629 613 1.0
e 629 428 2.0
e 629 350 1.0
e 630 4 27.0
e 630 243 2.0
e 630 64 4.0
e 630 31 29.0
e 630 555 25.0
e 630 571 12.0
e 630 602 28.0
e 630 604 24.0
e 630 611 5.0
e 631 432 1.0
e 631 72 1.0
e 631 3 1.0
e 632 494 1.0
e 632 311 1.0
e 632 508 2.0
e 632 117 3.0
e 633 518 1.0
e 633 494 1.0
e 633 467 1.0
e 633 154 1.0
e 634 329 1.0
e 634 514 1.0
e 634 249 1.0
e 634 192 1.0
e 635 478 24.0
e 635 138 5.0
e 635 290 49.0
e 635 287 48.0
e 635 606 46.0
e 635 611 37.0
e 635 619 8.0
e 635 630 9.0
e 635 4 7.0
e 636 358 2.0
e 636 361 1.0
e 636 556 1.0
e 636 605 1.0
e 637 381 1.0
e 637 594 1.0
e 637 213 1.0
e 637 626 1.0
e 638 464 1.0
e 638 132 1.0
e 638 146 1.0
e 638 212 1.0
e 639 575 1.0
e 639 240 1.0
e 639 144 1.0
e 639 612 1.0
